unsat
(:added-eqs                   1568988
 :arith-eq-adapter            4139
 :arith-bound-propagations-lp 127316
 :arith-conflicts             336
 :arith-diseq                 127206
 :arith-fixed-eqs             181692
 :arith-lower                 107319
 :arith-make-feasible         63587
 :arith-max-columns           1249
 :arith-max-rows              704
 :arith-offset-eqs            66844
 :arith-upper                 199960
 :binary-propagations         6134785
 :conflicts                   12665
 :decisions                   1147938
 :del-clause                  14712
 :elim-unconstrained          4
 :max-memory                  53.01
 :memory                      35.83
 :minimized-lits              91581
 :mk-bool-var                 22003
 :mk-clause                   23745
 :mk-clause-binary            56912
 :num-allocs                  358723853
 :num-checks                  1
 :propagations                7977321
 :restarts                    85
 :rlimit-count                32019348
 :time                        68.20
 :total-time                  69.33)
